100
32
9
12
6
2
21
26
12
29
8
31
12
26
16
16
11
13
9
19
13
12
9
17
25
14
12
15
25
11
26
10
24
8
15
13
9
10
9
6
4
2
11
20
16
3
5
2
2
2
1
17
3
4
4
2
20
2
1
3
3
26
4
1
4
5
2
2
1
19
4
2
19
7
17
1
3
3
3
4
1
2
17
2
5
2
2
1
1
3
2
2
3
2
1
2
1
20
7
3
3
2